[VALIDATOR STDOUT]
Checking plan: /home/jfan5/Safety-gen/runs/benchmark/optic/ferry_20260205_113042/ferry/optic_results/ferry-l40-c21-s40001.plan
Plan executed successfully - checking goal
Plan valid
Final value: 101 

Successful plans:
Value: 101
 /home/jfan5/Safety-gen/runs/benchmark/optic/ferry_20260205_113042/ferry/optic_results/ferry-l40-c21-s40001.plan 101
